benchmarks_vrp/CMT5/min_c/CMT5_0.vrp
NAME: CMT5_0
TYPE: CVRP
COMMENT: 1291.29 - Cluster Nr.0
DIMENSION: 11
CAPACITY: 200
EDGE_WEIGHT_TYPE: EUC_2D
NODE_COORD_TYPE: TWOD_COORDS
NODE_COORD_SECTION: 
6 62 77
2 57 68
7 63 65
10 62 63
11 35 35
8 55 60
5 49 73
9 63 69
1 55 65
3 52 64
4 47 66
DEPOT_SECTION: 
11
-1
DEMAND_SECTION: 
3 16
7 8
6 20
4 24
10 17
1 37
9 6
2 15
8 16
5 25
11 0
EOF
