benchmarks_vrp/CMT5/min_c/CMT5_0.tour
NAME: CMT5_0 solution
TYPE: TOUR
TOUR_SECTION:
11 4 5 6 9 7 10 2 1 3 8 -1
-1
EOF